c colouring generated by benchmark framework
p edge 1262 6285
v 1 4
v 2 1
v 3 3
v 4 3
v 5 0
v 6 3
v 7 2
v 8 0
v 9 1
v 10 2
v 11 3
v 12 2
v 13 1
v 14 1
v 15 4
v 16 4
v 17 0
v 18 2
v 19 0
v 20 3
v 21 5
v 22 1
v 23 4
v 24 3
v 25 5
v 26 3
v 27 2
v 28 4
v 29 0
v 30 1
v 31 0
v 32 5
v 33 5
v 34 3
v 35 2
v 36 0
v 37 0
v 38 5
v 39 5
v 40 0
v 41 4
v 42 3
v 43 5
v 44 2
v 45 3
v 46 0
v 47 0
v 48 1
v 49 4
v 50 1
v 51 4
v 52 0
v 53 2
v 54 2
v 55 1
v 56 1
v 57 2
v 58 2
v 59 3
v 60 4
v 61 4
v 62 2
v 63 5
v 64 4
v 65 1
v 66 3
v 67 1
v 68 2
v 69 1
v 70 4
v 71 4
v 72 3
v 73 0
v 74 2
v 75 1
v 76 4
v 77 3
v 78 3
v 79 1
v 80 3
v 81 5
v 82 0
v 83 4
v 84 3
v 85 5
v 86 2
v 87 1
v 88 5
v 89 4
v 90 0
v 91 1
v 92 2
v 93 0
v 94 2
v 95 5
v 96 2
v 97 1
v 98 3
v 99 2
v 100 1
v 101 4
v 102 1
v 103 0
v 104 0
v 105 1
v 106 2
v 107 2
v 108 0
v 109 4
v 110 4
v 111 1
v 112 1
v 113 2
v 114 1
v 115 1
v 116 2
v 117 3
v 118 0
v 119 4
v 120 0
v 121 5
v 122 3
v 123 0
v 124 0
v 125 4
v 126 0
v 127 3
v 128 0
v 129 5
v 130 0
v 131 3
v 132 1
v 133 4
v 134 0
v 135 1
v 136 3
v 137 2
v 138 4
v 139 1
v 140 3
v 141 0
v 142 5
v 143 5
v 144 3
v 145 4
v 146 2
v 147 5
v 148 2
v 149 2
v 150 4
v 151 4
v 152 0
v 153 5
v 154 5
v 155 3
v 156 2
v 157 1
v 158 0
v 159 0
v 160 3
v 161 5
v 162 3
v 163 1
v 164 2
v 165 5
v 166 3
v 167 5
v 168 1
v 169 3
v 170 0
v 171 2
v 172 2
v 173 0
v 174 1
v 175 5
v 176 0
v 177 1
v 178 2
v 179 3
v 180 0
v 181 1
v 182 3
v 183 2
v 184 0
v 185 2
v 186 2
v 187 2
v 188 0
v 189 1
v 190 2
v 191 3
v 192 4
v 193 3
v 194 1
v 195 4
v 196 5
v 197 2
v 198 0
v 199 2
v 200 4
v 201 1
v 202 2
v 203 2
v 204 1
v 205 3
v 206 4
v 207 1
v 208 1
v 209 0
v 210 0
v 211 2
v 212 0
v 213 0
v 214 2
v 215 2
v 216 5
v 217 4
v 218 4
v 219 0
v 220 2
v 221 2
v 222 3
v 223 3
v 224 0
v 225 0
v 226 0
v 227 4
v 228 3
v 229 1
v 230 5
v 231 3
v 232 0
v 233 2
v 234 0
v 235 2
v 236 3
v 237 2
v 238 0
v 239 3
v 240 2
v 241 1
v 242 1
v 243 0
v 244 1
v 245 3
v 246 1
v 247 0
v 248 2
v 249 1
v 250 1
v 251 2
v 252 3
v 253 1
v 254 0
v 255 0
v 256 2
v 257 2
v 258 4
v 259 1
v 260 2
v 261 5
v 262 5
v 263 4
v 264 5
v 265 2
v 266 0
v 267 5
v 268 5
v 269 0
v 270 2
v 271 3
v 272 1
v 273 3
v 274 5
v 275 1
v 276 0
v 277 3
v 278 2
v 279 4
v 280 1
v 281 3
v 282 3
v 283 5
v 284 0
v 285 0
v 286 0
v 287 1
v 288 2
v 289 2
v 290 1
v 291 2
v 292 4
v 293 0
v 294 0
v 295 1
v 296 5
v 297 2
v 298 4
v 299 1
v 300 1
v 301 4
v 302 3
v 303 0
v 304 2
v 305 4
v 306 4
v 307 5
v 308 0
v 309 5
v 310 3
v 311 4
v 312 3
v 313 2
v 314 5
v 315 0
v 316 3
v 317 3
v 318 4
v 319 1
v 320 0
v 321 1
v 322 0
v 323 5
v 324 2
v 325 1
v 326 4
v 327 2
v 328 5
v 329 5
v 330 0
v 331 4
v 332 5
v 333 1
v 334 1
v 335 4
v 336 2
v 337 3
v 338 0
v 339 1
v 340 5
v 341 2
v 342 3
v 343 0
v 344 3
v 345 0
v 346 1
v 347 2
v 348 4
v 349 4
v 350 1
v 351 5
v 352 0
v 353 2
v 354 1
v 355 1
v 356 3
v 357 1
v 358 0
v 359 3
v 360 4
v 361 2
v 362 3
v 363 2
v 364 3
v 365 3
v 366 0
v 367 2
v 368 5
v 369 3
v 370 2
v 371 1
v 372 1
v 373 1
v 374 3
v 375 0
v 376 0
v 377 5
v 378 0
v 379 1
v 380 1
v 381 1
v 382 4
v 383 2
v 384 4
v 385 3
v 386 4
v 387 3
v 388 4
v 389 0
v 390 4
v 391 0
v 392 2
v 393 2
v 394 0
v 395 3
v 396 0
v 397 5
v 398 3
v 399 0
v 400 0
v 401 2
v 402 4
v 403 0
v 404 4
v 405 0
v 406 1
v 407 5
v 408 4
v 409 0
v 410 3
v 411 2
v 412 1
v 413 3
v 414 4
v 415 0
v 416 2
v 417 5
v 418 1
v 419 2
v 420 1
v 421 0
v 422 3
v 423 0
v 424 1
v 425 2
v 426 0
v 427 3
v 428 4
v 429 5
v 430 2
v 431 0
v 432 1
v 433 2
v 434 1
v 435 3
v 436 2
v 437 1
v 438 3
v 439 3
v 440 3
v 441 4
v 442 2
v 443 0
v 444 5
v 445 2
v 446 5
v 447 4
v 448 2
v 449 1
v 450 3
v 451 2
v 452 4
v 453 2
v 454 3
v 455 0
v 456 2
v 457 2
v 458 4
v 459 1
v 460 5
v 461 0
v 462 4
v 463 3
v 464 4
v 465 3
v 466 1
v 467 2
v 468 4
v 469 1
v 470 0
v 471 0
v 472 2
v 473 1
v 474 0
v 475 5
v 476 2
v 477 1
v 478 5
v 479 0
v 480 0
v 481 1
v 482 0
v 483 4
v 484 1
v 485 5
v 486 0
v 487 1
v 488 1
v 489 4
v 490 3
v 491 3
v 492 2
v 493 3
v 494 5
v 495 0
v 496 4
v 497 1
v 498 4
v 499 4
v 500 2
v 501 4
v 502 5
v 503 2
v 504 1
v 505 0
v 506 1
v 507 0
v 508 5
v 509 0
v 510 3
v 511 3
v 512 3
v 513 4
v 514 2
v 515 2
v 516 0
v 517 0
v 518 5
v 519 2
v 520 2
v 521 4
v 522 0
v 523 3
v 524 3
v 525 3
v 526 4
v 527 0
v 528 2
v 529 5
v 530 4
v 531 2
v 532 1
v 533 4
v 534 0
v 535 0
v 536 4
v 537 1
v 538 1
v 539 4
v 540 4
v 541 0
v 542 4
v 543 2
v 544 0
v 545 1
v 546 2
v 547 0
v 548 4
v 549 3
v 550 0
v 551 5
v 552 3
v 553 1
v 554 3
v 555 0
v 556 5
v 557 2
v 558 2
v 559 2
v 560 5
v 561 2
v 562 0
v 563 4
v 564 0
v 565 2
v 566 1
v 567 1
v 568 4
v 569 5
v 570 2
v 571 2
v 572 3
v 573 2
v 574 1
v 575 4
v 576 3
v 577 5
v 578 3
v 579 5
v 580 3
v 581 2
v 582 1
v 583 1
v 584 2
v 585 0
v 586 4
v 587 0
v 588 1
v 589 5
v 590 3
v 591 2
v 592 0
v 593 2
v 594 0
v 595 1
v 596 2
v 597 2
v 598 0
v 599 4
v 600 1
v 601 4
v 602 0
v 603 3
v 604 0
v 605 2
v 606 4
v 607 1
v 608 3
v 609 3
v 610 4
v 611 2
v 612 0
v 613 0
v 614 2
v 615 1
v 616 1
v 617 4
v 618 0
v 619 4
v 620 0
v 621 2
v 622 3
v 623 2
v 624 1
v 625 5
v 626 0
v 627 0
v 628 1
v 629 4
v 630 0
v 631 2
v 632 4
v 633 3
v 634 3
v 635 4
v 636 5
v 637 3
v 638 2
v 639 2
v 640 1
v 641 2
v 642 3
v 643 5
v 644 4
v 645 1
v 646 1
v 647 0
v 648 1
v 649 1
v 650 2
v 651 5
v 652 4
v 653 0
v 654 3
v 655 5
v 656 2
v 657 4
v 658 0
v 659 0
v 660 5
v 661 3
v 662 1
v 663 2
v 664 0
v 665 1
v 666 0
v 667 2
v 668 4
v 669 4
v 670 3
v 671 0
v 672 1
v 673 5
v 674 2
v 675 1
v 676 1
v 677 2
v 678 3
v 679 1
v 680 0
v 681 3
v 682 4
v 683 2
v 684 1
v 685 5
v 686 2
v 687 1
v 688 0
v 689 1
v 690 0
v 691 2
v 692 3
v 693 3
v 694 5
v 695 0
v 696 2
v 697 0
v 698 5
v 699 1
v 700 1
v 701 1
v 702 1
v 703 1
v 704 3
v 705 0
v 706 1
v 707 1
v 708 4
v 709 0
v 710 2
v 711 0
v 712 5
v 713 5
v 714 2
v 715 1
v 716 2
v 717 0
v 718 4
v 719 0
v 720 0
v 721 2
v 722 3
v 723 0
v 724 4
v 725 5
v 726 2
v 727 0
v 728 2
v 729 2
v 730 1
v 731 3
v 732 5
v 733 3
v 734 3
v 735 1
v 736 1
v 737 1
v 738 1
v 739 3
v 740 2
v 741 4
v 742 2
v 743 5
v 744 4
v 745 4
v 746 3
v 747 1
v 748 0
v 749 4
v 750 2
v 751 3
v 752 2
v 753 1
v 754 2
v 755 3
v 756 2
v 757 3
v 758 2
v 759 1
v 760 1
v 761 3
v 762 3
v 763 1
v 764 0
v 765 4
v 766 3
v 767 3
v 768 5
v 769 1
v 770 5
v 771 4
v 772 0
v 773 2
v 774 1
v 775 1
v 776 3
v 777 3
v 778 3
v 779 4
v 780 3
v 781 0
v 782 1
v 783 1
v 784 5
v 785 4
v 786 1
v 787 2
v 788 5
v 789 1
v 790 4
v 791 3
v 792 0
v 793 3
v 794 1
v 795 0
v 796 0
v 797 1
v 798 2
v 799 1
v 800 2
v 801 4
v 802 3
v 803 4
v 804 2
v 805 3
v 806 2
v 807 1
v 808 2
v 809 2
v 810 2
v 811 5
v 812 1
v 813 3
v 814 1
v 815 0
v 816 3
v 817 4
v 818 1
v 819 4
v 820 3
v 821 2
v 822 3
v 823 2
v 824 1
v 825 3
v 826 1
v 827 3
v 828 4
v 829 2
v 830 3
v 831 1
v 832 4
v 833 2
v 834 2
v 835 5
v 836 1
v 837 4
v 838 5
v 839 1
v 840 3
v 841 4
v 842 2
v 843 3
v 844 0
v 845 0
v 846 4
v 847 0
v 848 3
v 849 2
v 850 2
v 851 1
v 852 5
v 853 3
v 854 3
v 855 1
v 856 0
v 857 5
v 858 4
v 859 2
v 860 5
v 861 5
v 862 5
v 863 5
v 864 0
v 865 1
v 866 0
v 867 4
v 868 4
v 869 0
v 870 5
v 871 1
v 872 5
v 873 1
v 874 3
v 875 3
v 876 3
v 877 1
v 878 3
v 879 2
v 880 2
v 881 1
v 882 4
v 883 2
v 884 4
v 885 1
v 886 2
v 887 1
v 888 3
v 889 5
v 890 3
v 891 0
v 892 0
v 893 0
v 894 5
v 895 5
v 896 0
v 897 5
v 898 1
v 899 1
v 900 3
v 901 4
v 902 2
v 903 0
v 904 2
v 905 4
v 906 5
v 907 5
v 908 1
v 909 0
v 910 3
v 911 3
v 912 4
v 913 5
v 914 1
v 915 4
v 916 1
v 917 1
v 918 1
v 919 1
v 920 0
v 921 3
v 922 0
v 923 4
v 924 4
v 925 3
v 926 4
v 927 0
v 928 0
v 929 3
v 930 3
v 931 2
v 932 0
v 933 5
v 934 0
v 935 3
v 936 4
v 937 0
v 938 0
v 939 1
v 940 0
v 941 4
v 942 4
v 943 1
v 944 4
v 945 2
v 946 0
v 947 5
v 948 0
v 949 0
v 950 1
v 951 1
v 952 4
v 953 4
v 954 3
v 955 0
v 956 1
v 957 1
v 958 1
v 959 2
v 960 5
v 961 5
v 962 4
v 963 2
v 964 5
v 965 1
v 966 0
v 967 5
v 968 3
v 969 1
v 970 4
v 971 4
v 972 2
v 973 5
v 974 3
v 975 2
v 976 3
v 977 4
v 978 2
v 979 3
v 980 3
v 981 0
v 982 1
v 983 4
v 984 3
v 985 5
v 986 0
v 987 0
v 988 0
v 989 3
v 990 2
v 991 5
v 992 3
v 993 3
v 994 0
v 995 1
v 996 4
v 997 3
v 998 4
v 999 0
v 1000 5
v 1001 0
v 1002 0
v 1003 4
v 1004 1
v 1005 1
v 1006 5
v 1007 3
v 1008 1
v 1009 2
v 1010 0
v 1011 5
v 1012 0
v 1013 3
v 1014 3
v 1015 5
v 1016 2
v 1017 0
v 1018 5
v 1019 1
v 1020 4
v 1021 2
v 1022 0
v 1023 2
v 1024 1
v 1025 2
v 1026 3
v 1027 2
v 1028 2
v 1029 5
v 1030 3
v 1031 3
v 1032 3
v 1033 1
v 1034 4
v 1035 2
v 1036 2
v 1037 5
v 1038 3
v 1039 2
v 1040 1
v 1041 1
v 1042 4
v 1043 5
v 1044 4
v 1045 2
v 1046 2
v 1047 4
v 1048 0
v 1049 1
v 1050 1
v 1051 3
v 1052 1
v 1053 3
v 1054 2
v 1055 4
v 1056 0
v 1057 1
v 1058 3
v 1059 3
v 1060 1
v 1061 3
v 1062 1
v 1063 4
v 1064 2
v 1065 0
v 1066 1
v 1067 2
v 1068 0
v 1069 0
v 1070 0
v 1071 4
v 1072 3
v 1073 3
v 1074 0
v 1075 2
v 1076 1
v 1077 3
v 1078 1
v 1079 0
v 1080 4
v 1081 1
v 1082 1
v 1083 1
v 1084 2
v 1085 3
v 1086 2
v 1087 4
v 1088 4
v 1089 1
v 1090 2
v 1091 0
v 1092 3
v 1093 2
v 1094 0
v 1095 4
v 1096 1
v 1097 1
v 1098 4
v 1099 0
v 1100 5
v 1101 2
v 1102 2
v 1103 1
v 1104 2
v 1105 2
v 1106 2
v 1107 4
v 1108 1
v 1109 3
v 1110 5
v 1111 5
v 1112 3
v 1113 2
v 1114 3
v 1115 1
v 1116 1
v 1117 3
v 1118 2
v 1119 2
v 1120 1
v 1121 2
v 1122 4
v 1123 0
v 1124 0
v 1125 2
v 1126 1
v 1127 5
v 1128 0
v 1129 1
v 1130 4
v 1131 4
v 1132 2
v 1133 4
v 1134 0
v 1135 0
v 1136 0
v 1137 3
v 1138 1
v 1139 0
v 1140 0
v 1141 1
v 1142 3
v 1143 4
v 1144 2
v 1145 5
v 1146 2
v 1147 3
v 1148 2
v 1149 1
v 1150 3
v 1151 0
v 1152 2
v 1153 1
v 1154 0
v 1155 2
v 1156 0
v 1157 4
v 1158 1
v 1159 5
v 1160 2
v 1161 0
v 1162 1
v 1163 2
v 1164 0
v 1165 2
v 1166 0
v 1167 4
v 1168 4
v 1169 0
v 1170 1
v 1171 0
v 1172 4
v 1173 4
v 1174 3
v 1175 2
v 1176 3
v 1177 2
v 1178 2
v 1179 1
v 1180 5
v 1181 3
v 1182 3
v 1183 5
v 1184 0
v 1185 1
v 1186 1
v 1187 5
v 1188 2
v 1189 4
v 1190 2
v 1191 3
v 1192 1
v 1193 1
v 1194 0
v 1195 4
v 1196 3
v 1197 5
v 1198 2
v 1199 5
v 1200 2
v 1201 4
v 1202 3
v 1203 3
v 1204 0
v 1205 0
v 1206 2
v 1207 3
v 1208 0
v 1209 0
v 1210 0
v 1211 0
v 1212 3
v 1213 1
v 1214 1
v 1215 3
v 1216 2
v 1217 5
v 1218 3
v 1219 2
v 1220 3
v 1221 3
v 1222 0
v 1223 4
v 1224 4
v 1225 4
v 1226 1
v 1227 3
v 1228 4
v 1229 4
v 1230 0
v 1231 1
v 1232 2
v 1233 1
v 1234 4
v 1235 0
v 1236 0
v 1237 4
v 1238 0
v 1239 0
v 1240 5
v 1241 2
v 1242 0
v 1243 5
v 1244 0
v 1245 2
v 1246 4
v 1247 0
v 1248 3
v 1249 0
v 1250 2
v 1251 4
v 1252 2
v 1253 1
v 1254 1
v 1255 4
v 1256 1
v 1257 1
v 1258 1
v 1259 2
v 1260 3
v 1261 4
v 1262 1
